RAW/XQ/fspd/X-n167-k10.vrp_seed-2.out
17315	2.717	39.81
