RAW/XQ/fspd/X-n167-k10.vrp_seed-2.sol
Route #1: 5 86 99
Route #2: 137 73 22 83 69 155 56 58 61 127 126 47 118 93 25 7 6 89 67
Route #3: 103 87 144 18 139 27 108 102 100 135 150 98 45 81 164 34 65 110 101 36 105 80 124 63
Route #4: 54 23 154 132 142 19 50 40 31 24 133 70 141 39 11 82 120 53 112 59 95 158 60 76 42 152
Route #5: 157 9 123 35 26 165 78 74 33 106 166 94 90 41 138 128 62 162 68 48
Route #6: 14 156 125 66 20 161 91 49 107 64 104 12 57 77 13 1 122 111 88 136 37 84 146 51 10 72 32 75 160
Route #7: 46 52 85 43 117 147 129 145 163 114 8 2 29 28 16 109 153 116 148 97 115 55 92 30 44
Route #8: 121 79 3 130 143 71 113 21 149 4 131 151 38 96 17 159 15 140 119 134
Cost 17315.000000